200
Lattice="257.03291 0.0 0.0 0.0 10.0 0.0 0.0 0.0 10.0" Properties=species:S:1:pos:R:3 pbc="F F F"
C        3.22555800       4.89616600       4.91089100
C        4.49047800       4.89604200       4.91090900
C        1.92014600       4.89599700       4.91094800
C        0.65524500       4.89612800       4.91089600
C        8.36623300       4.89616800       4.91089700
C        9.63113400       4.89605200       4.91091500
C        7.06077200       4.89599100       4.91095100
C        5.79592900       4.89612500       4.91090300
C       13.50689600       4.89617300       4.91090000
C       14.77179000       4.89605600       4.91091400
C       12.20143400       4.89599700       4.91095300
C       10.93657500       4.89613700       4.91090800
C       18.64757100       4.89617200       4.91089200
C       19.91242500       4.89605000       4.91090600
C       17.34211100       4.89600200       4.91094900
C       16.07721200       4.89614200       4.91090100
C       23.78820600       4.89616800       4.91088800
C       25.05309500       4.89604200       4.91090300
C       22.48278100       4.89600400       4.91094700
C       21.21787800       4.89613800       4.91089600
C       28.92884900       4.89616600       4.91089100
C       30.19376900       4.89604200       4.91090900
C       27.62343700       4.89599700       4.91094800
C       26.35853600       4.89612800       4.91089600
C       34.06952400       4.89616800       4.91089700
C       35.33442600       4.89605200       4.91091500
C       32.76406300       4.89599100       4.91095100
C       31.49922000       4.89612500       4.91090300
C       39.21018800       4.89617300       4.91090000
C       40.47508200       4.89605600       4.91091400
C       37.90472500       4.89599700       4.91095300
C       36.63986500       4.89613700       4.91090800
C       44.35086200       4.89617200       4.91089200
C       45.61571600       4.89605000       4.91090600
C       43.04540100       4.89600200       4.91094900
C       41.78050200       4.89614200       4.91090100
C       49.49149600       4.89616800       4.91088800
C       50.75638600       4.89604200       4.91090300
C       48.18607100       4.89600400       4.91094700
C       46.92116900       4.89613800       4.91089600
C       54.63214000       4.89616600       4.91089100
C       55.89705900       4.89604200       4.91090900
C       53.32672800       4.89599700       4.91094800
C       52.06182700       4.89612800       4.91089600
C       59.77281600       4.89616800       4.91089700
C       61.03771700       4.89605200       4.91091500
C       58.46735400       4.89599100       4.91095100
C       57.20251100       4.89612500       4.91090300
C       64.91347800       4.89617300       4.91090000
C       66.17837200       4.89605600       4.91091400
C       63.60801600       4.89599700       4.91095300
C       62.34315600       4.89613700       4.91090800
C       70.05415300       4.89617200       4.91089200
C       71.31900700       4.89605000       4.91090600
C       68.74869300       4.89600200       4.91094900
C       67.48379400       4.89614200       4.91090100
C       75.19478800       4.89616800       4.91088800
C       76.45967700       4.89604200       4.91090300
C       73.88936300       4.89600400       4.91094700
C       72.62446000       4.89613800       4.91089600
C       80.33543100       4.89616600       4.91089100
C       81.60035000       4.89604200       4.91090900
C       79.03001800       4.89599700       4.91094800
C       77.76511800       4.89612800       4.91089600
C       85.47610600       4.89616800       4.91089700
C       86.74100700       4.89605200       4.91091500
C       84.17064400       4.89599100       4.91095100
C       82.90580200       4.89612500       4.91090300
C       90.61676900       4.89617300       4.91090000
C       91.88166300       4.89605600       4.91091400
C       89.31130700       4.89599700       4.91095300
C       88.04644700       4.89613700       4.91090800
C       95.75744400       4.89617200       4.91089200
C       97.02229700       4.89605000       4.91090600
C       94.45198300       4.89600200       4.91094900
C       93.18708400       4.89614200       4.91090100
C      100.89807800       4.89616800       4.91088800
C      102.16296800       4.89604200       4.91090300
C       99.59265300       4.89600400       4.91094700
C       98.32775000       4.89613800       4.91089600
C      106.03872300       4.89616600       4.91089100
C      107.30364100       4.89604200       4.91090900
C      104.73331000       4.89599700       4.91094800
C      103.46841000       4.89612800       4.91089600
C      111.17939700       4.89616800       4.91089700
C      112.44429900       4.89605200       4.91091500
C      109.87393600       4.89599100       4.91095100
C      108.60909400       4.89612500       4.91090300
C      116.32006000       4.89617300       4.91090000
C      117.58495400       4.89605600       4.91091400
C      115.01459900       4.89599700       4.91095300
C      113.74973900       4.89613700       4.91090800
C      121.46073500       4.89617200       4.91089200
C      122.72558900       4.89605000       4.91090600
C      120.15527500       4.89600200       4.91094900
C      118.89037600       4.89614200       4.91090100
C      126.60137000       4.89616800       4.91088800
C      127.86625900       4.89604200       4.91090300
C      125.29594500       4.89600400       4.91094700
C      124.03104200       4.89613800       4.91089600
C      131.74201400       4.89616600       4.91089100
C      133.00693300       4.89604200       4.91090900
C      130.43660000       4.89599700       4.91094800
C      129.17170100       4.89612800       4.91089600
C      136.88268900       4.89616800       4.91089700
C      138.14759000       4.89605200       4.91091500
C      135.57722600       4.89599100       4.91095100
C      134.31238500       4.89612500       4.91090300
C      142.02335200       4.89617300       4.91090000
C      143.28824600       4.89605600       4.91091400
C      140.71789000       4.89599700       4.91095300
C      139.45303000       4.89613700       4.91090800
C      147.16402700       4.89617200       4.91089200
C      148.42887900       4.89605000       4.91090600
C      145.85856500       4.89600200       4.91094900
C      144.59366700       4.89614200       4.91090100
C      152.30466100       4.89616800       4.91088800
C      153.56955000       4.89604200       4.91090300
C      150.99923500       4.89600400       4.91094700
C      149.73433200       4.89613800       4.91089600
C      157.44530400       4.89616600       4.91089100
C      158.71022300       4.89604200       4.91090900
C      156.13989100       4.89599700       4.91094800
C      154.87499100       4.89612800       4.91089600
C      162.58597900       4.89616800       4.91089700
C      163.85088000       4.89605200       4.91091500
C      161.28051700       4.89599100       4.91095100
C      160.01567500       4.89612500       4.91090300
C      167.72664200       4.89617300       4.91090000
C      168.99153600       4.89605600       4.91091400
C      166.42118000       4.89599700       4.91095300
C      165.15632000       4.89613700       4.91090800
C      172.86731700       4.89617200       4.91089200
C      174.13217000       4.89605000       4.91090600
C      171.56185600       4.89600200       4.91094900
C      170.29695700       4.89614200       4.91090100
C      178.00795100       4.89616800       4.91088800
C      179.27284100       4.89604200       4.91090300
C      176.70252600       4.89600400       4.91094700
C      175.43762300       4.89613800       4.91089600
C      183.14859500       4.89616600       4.91089100
C      184.41351400       4.89604200       4.91090900
C      181.84318200       4.89599700       4.91094800
C      180.57828300       4.89612800       4.91089600
C      188.28927000       4.89616800       4.91089700
C      189.55417100       4.89605200       4.91091500
C      186.98380800       4.89599100       4.91095100
C      185.71896600       4.89612500       4.91090300
C      193.42993400       4.89617300       4.91090000
C      194.69482800       4.89605600       4.91091400
C      192.12447100       4.89599700       4.91095300
C      190.85961100       4.89613700       4.91090800
C      198.57060800       4.89617200       4.91089200
C      199.83546200       4.89605000       4.91090600
C      197.26514700       4.89600200       4.91094900
C      196.00024800       4.89614200       4.91090100
C      203.71124200       4.89616800       4.91088800
C      204.97613300       4.89604200       4.91090300
C      202.40581700       4.89600400       4.91094700
C      201.14091500       4.89613800       4.91089600
C      208.85188700       4.89616600       4.91089100
C      210.11680500       4.89604200       4.91090900
C      207.54647300       4.89599700       4.91094800
C      206.28157400       4.89612800       4.91089600
C      213.99256100       4.89616800       4.91089700
C      215.25746300       4.89605200       4.91091500
C      212.68709900       4.89599100       4.91095100
C      211.42225800       4.89612500       4.91090300
C      219.13322500       4.89617300       4.91090000
C      220.39811900       4.89605600       4.91091400
C      217.82776300       4.89599700       4.91095300
C      216.56290300       4.89613700       4.91090800
C      224.27389900       4.89617200       4.91089200
C      225.53875200       4.89605000       4.91090600
C      222.96843800       4.89600200       4.91094900
C      221.70354000       4.89614200       4.91090100
C      229.41453400       4.89616800       4.91088800
C      230.67942300       4.89604200       4.91090300
C      228.10910800       4.89600400       4.91094700
C      226.84420500       4.89613800       4.91089600
C      234.55517800       4.89616600       4.91089100
C      235.82009700       4.89604200       4.91090900
C      233.24976400       4.89599700       4.91094800
C      231.98486500       4.89612800       4.91089600
C      239.69585300       4.89616800       4.91089700
C      240.96075400       4.89605200       4.91091500
C      238.39039000       4.89599100       4.91095100
C      237.12554900       4.89612500       4.91090300
C      244.83651600       4.89617300       4.91090000
C      246.10141000       4.89605600       4.91091400
C      243.53105400       4.89599700       4.91095300
C      242.26619400       4.89613700       4.91090800
C      249.97719100       4.89617200       4.91089200
C      251.24204400       4.89605000       4.91090600
C      248.67172900       4.89600200       4.91094900
C      247.40683100       4.89614200       4.91090100
C      255.11782500       4.89616800       4.91088800
C      256.38271500       4.89604200       4.91090300
C      253.81239900       4.89600400       4.91094700
C      252.54749700       4.89613800       4.91089600
