160
Lattice="49.224 0.0 0.0 0.0 8.52584 0.0 0.0 0.0 6.709" Properties=species:S:1:pos:R:3 pbc="F T F"
C        1.23060000       2.13146200       0.00000000
C        0.00000000       2.84194900       0.00000000
C        0.00000000       0.00000000       0.00000000
C        1.23060000       0.71048800       0.00000000
C        1.23060000       6.39438200       0.00000000
C        0.00000000       7.10486900       0.00000000
C        0.00000000       4.26292000       0.00000000
C        1.23060000       4.97340800       0.00000000
C        3.69180000       2.13146200       0.00000000
C        2.46120000       2.84194900       0.00000000
C        2.46120000       0.00000000       0.00000000
C        3.69180000       0.71048800       0.00000000
C        3.69180000       6.39438200       0.00000000
C        2.46120000       7.10486900       0.00000000
C        2.46120000       4.26292000       0.00000000
C        3.69180000       4.97340800       0.00000000
C        6.15300000       2.13146200       0.00000000
C        4.92240000       2.84194900       0.00000000
C        4.92240000       0.00000000       0.00000000
C        6.15300000       0.71048800       0.00000000
C        6.15300000       6.39438200       0.00000000
C        4.92240000       7.10486900       0.00000000
C        4.92240000       4.26292000       0.00000000
C        6.15300000       4.97340800       0.00000000
C        8.61420000       2.13146200       0.00000000
C        7.38360000       2.84194900       0.00000000
C        7.38360000       0.00000000       0.00000000
C        8.61420000       0.71048800       0.00000000
C        8.61420000       6.39438200       0.00000000
C        7.38360000       7.10486900       0.00000000
C        7.38360000       4.26292000       0.00000000
C        8.61420000       4.97340800       0.00000000
C       11.07540000       2.13146200       0.00000000
C        9.84480000       2.84194900       0.00000000
C        9.84480000       0.00000000       0.00000000
C       11.07540000       0.71048800       0.00000000
C       11.07540000       6.39438200       0.00000000
C        9.84480000       7.10486900       0.00000000
C        9.84480000       4.26292000       0.00000000
C       11.07540000       4.97340800       0.00000000
C       13.53660000       2.13146200       0.00000000
C       12.30600000       2.84194900       0.00000000
C       12.30600000       0.00000000       0.00000000
C       13.53660000       0.71048800       0.00000000
C       13.53660000       6.39438200       0.00000000
C       12.30600000       7.10486900       0.00000000
C       12.30600000       4.26292000       0.00000000
C       13.53660000       4.97340800       0.00000000
C       15.99780000       2.13146200       0.00000000
C       14.76720000       2.84194900       0.00000000
C       14.76720000       0.00000000       0.00000000
C       15.99780000       0.71048800       0.00000000
C       15.99780000       6.39438200       0.00000000
C       14.76720000       7.10486900       0.00000000
C       14.76720000       4.26292000       0.00000000
C       15.99780000       4.97340800       0.00000000
C       18.45900000       2.13146200       0.00000000
C       17.22840000       2.84194900       0.00000000
C       17.22840000       0.00000000       0.00000000
C       18.45900000       0.71048800       0.00000000
C       18.45900000       6.39438200       0.00000000
C       17.22840000       7.10486900       0.00000000
C       17.22840000       4.26292000       0.00000000
C       18.45900000       4.97340800       0.00000000
C       20.92020000       2.13146200       0.00000000
C       19.68960000       2.84194900       0.00000000
C       19.68960000       0.00000000       0.00000000
C       20.92020000       0.71048800       0.00000000
C       20.92020000       6.39438200       0.00000000
C       19.68960000       7.10486900       0.00000000
C       19.68960000       4.26292000       0.00000000
C       20.92020000       4.97340800       0.00000000
C       23.38140000       2.13146200       0.00000000
C       22.15080000       2.84194900       0.00000000
C       22.15080000       0.00000000       0.00000000
C       23.38140000       0.71048800       0.00000000
C       23.38140000       6.39438200       0.00000000
C       22.15080000       7.10486900       0.00000000
C       22.15080000       4.26292000       0.00000000
C       23.38140000       4.97340800       0.00000000
C       25.84260000       2.13146200       0.00000000
C       24.61200000       2.84194900       0.00000000
C       24.61200000       0.00000000       0.00000000
C       25.84260000       0.71048800       0.00000000
C       25.84260000       6.39438200       0.00000000
C       24.61200000       7.10486900       0.00000000
C       24.61200000       4.26292000       0.00000000
C       25.84260000       4.97340800       0.00000000
C       28.30380000       2.13146200       0.00000000
C       27.07320000       2.84194900       0.00000000
C       27.07320000       0.00000000       0.00000000
C       28.30380000       0.71048800       0.00000000
C       28.30380000       6.39438200       0.00000000
C       27.07320000       7.10486900       0.00000000
C       27.07320000       4.26292000       0.00000000
C       28.30380000       4.97340800       0.00000000
C       30.76500000       2.13146200       0.00000000
C       29.53440000       2.84194900       0.00000000
C       29.53440000       0.00000000       0.00000000
C       30.76500000       0.71048800       0.00000000
C       30.76500000       6.39438200       0.00000000
C       29.53440000       7.10486900       0.00000000
C       29.53440000       4.26292000       0.00000000
C       30.76500000       4.97340800       0.00000000
C       33.22620000       2.13146200       0.00000000
C       31.99560000       2.84194900       0.00000000
C       31.99560000       0.00000000       0.00000000
C       33.22620000       0.71048800       0.00000000
C       33.22620000       6.39438200       0.00000000
C       31.99560000       7.10486900       0.00000000
C       31.99560000       4.26292000       0.00000000
C       33.22620000       4.97340800       0.00000000
C       35.68740000       2.13146200       0.00000000
C       34.45680000       2.84194900       0.00000000
C       34.45680000       0.00000000       0.00000000
C       35.68740000       0.71048800       0.00000000
C       35.68740000       6.39438200       0.00000000
C       34.45680000       7.10486900       0.00000000
C       34.45680000       4.26292000       0.00000000
C       35.68740000       4.97340800       0.00000000
C       38.14860000       2.13146200       0.00000000
C       36.91800000       2.84194900       0.00000000
C       36.91800000       0.00000000       0.00000000
C       38.14860000       0.71048800       0.00000000
C       38.14860000       6.39438200       0.00000000
C       36.91800000       7.10486900       0.00000000
C       36.91800000       4.26292000       0.00000000
C       38.14860000       4.97340800       0.00000000
C       40.60980000       2.13146200       0.00000000
C       39.37920000       2.84194900       0.00000000
C       39.37920000       0.00000000       0.00000000
C       40.60980000       0.71048800       0.00000000
C       40.60980000       6.39438200       0.00000000
C       39.37920000       7.10486900       0.00000000
C       39.37920000       4.26292000       0.00000000
C       40.60980000       4.97340800       0.00000000
C       43.07100000       2.13146200       0.00000000
C       41.84040000       2.84194900       0.00000000
C       41.84040000       0.00000000       0.00000000
C       43.07100000       0.71048800       0.00000000
C       43.07100000       6.39438200       0.00000000
C       41.84040000       7.10486900       0.00000000
C       41.84040000       4.26292000       0.00000000
C       43.07100000       4.97340800       0.00000000
C       45.53220000       2.13146200       0.00000000
C       44.30160000       2.84194900       0.00000000
C       44.30160000       0.00000000       0.00000000
C       45.53220000       0.71048800       0.00000000
C       45.53220000       6.39438200       0.00000000
C       44.30160000       7.10486900       0.00000000
C       44.30160000       4.26292000       0.00000000
C       45.53220000       4.97340800       0.00000000
C       47.99340000       2.13146200       0.00000000
C       46.76280000       2.84194900       0.00000000
C       46.76280000       0.00000000       0.00000000
C       47.99340000       0.71048800       0.00000000
C       47.99340000       6.39438200       0.00000000
C       46.76280000       7.10486900       0.00000000
C       46.76280000       4.26292000       0.00000000
C       47.99340000       4.97340800       0.00000000
