22
Lattice="3.18 0.0 0.0 0.0 5.507922 0.0 0.0 0.0 17.19" Properties=species:S:1:pos:R:3 pbc="T T F"
X        0.79500000       0.91146100       8.59500000
X        0.79500000       0.96828700       8.59500000
X        0.79500000       0.86767300       8.59500000
X        0.79500000       1.03763500       8.59500000
X        0.79500000       0.80597000       8.59500000
X        2.38500000       3.66542200       8.59500000
X        2.38500000       3.72224800       8.59500000
X        2.38500000       3.62163400       8.59500000
X        2.38500000       3.79159600       8.59500000
X        2.38500000       3.55993100       8.59500000
X        2.38500000       1.82862200       10.26688000
X        2.38500000       1.82613700       10.12287200
X        2.38500000       1.85277800       10.12309400
X        2.38500000       1.82862200       6.92312000
X        2.38500000       1.82613700       7.06712800
X        2.38500000       1.85277800       7.06690600
X        0.79500000       4.58258300       10.26688000
X        0.79500000       4.58009800       10.12287200
X        0.79500000       4.60674000       10.12309400
X        0.79500000       4.58258300       6.92312000
X        0.79500000       4.58009800       7.06712800
X        0.79500000       4.60674000       7.06690600
